Running for instance ./models/c105.txt
Generating routes...
Execution time:  0.5806015  minutes
Academic license - for non-commercial use only
Warning: constraint name "Cliente esta na rota" has a space
Optimize a model with 26 rows, 5000 columns and 32105 nonzeros
Variable types: 0 continuous, 5000 integer (0 binary)
Coefficient statistics:
  Matrix range     [1e+00, 1e+00]
  Objective range  [2e+01, 2e+02]
  Bounds range     [1e+00, 1e+00]
  RHS range        [1e+00, 2e+01]
Found heuristic solution: objective 831.3047258
Presolve removed 0 rows and 334 columns
Presolve time: 0.03s
Presolved: 26 rows, 4666 columns, 29904 nonzeros
Variable types: 0 continuous, 4666 integer (4666 binary)

Root relaxation: objective 2.290423e+02, 104 iterations, 0.01 seconds

    Nodes    |    Current Node    |     Objective Bounds      |     Work
 Expl Unexpl |  Obj  Depth IntInf | Incumbent    BestBd   Gap | It/Node Time

     0     0  229.04230    0   16  831.30473  229.04230  72.4%     -    0s
H    0     0                     332.4423300  229.04230  31.1%     -    0s
H    0     0                     318.1664172  229.04230  28.0%     -    0s
H    0     0                     312.0009773  229.04230  26.6%     -    0s
H    0     0                     308.6006497  229.04230  25.8%     -    0s
H    0     0                     307.1639955  229.04230  25.4%     -    0s
     0     0  238.96907    0   17  307.16400  238.96907  22.2%     -    0s
     0     0  242.90764    0   26  307.16400  242.90764  20.9%     -    0s
     0     0  243.84026    0   26  307.16400  243.84026  20.6%     -    0s
     0     0  244.10858    0   27  307.16400  244.10858  20.5%     -    0s
     0     0  244.61188    0   24  307.16400  244.61188  20.4%     -    0s
H    0     0                     273.2362886  244.61188  10.5%     -    0s
     0     0  249.09318    0   13  273.23629  249.09318  8.84%     -    0s
     0     0  255.33767    0   22  273.23629  255.33767  6.55%     -    0s
     0     0  257.89533    0   30  273.23629  257.89533  5.61%     -    0s
     0     0  258.63536    0   28  273.23629  258.63536  5.34%     -    0s
H    0     0                     266.0665979  258.63536  2.79%     -    0s
     0     0  259.10114    0   28  266.06660  259.10114  2.62%     -    0s
     0     0  259.30248    0   29  266.06660  259.30248  2.54%     -    0s
H    0     0                     261.3930462  259.30248  0.80%     -    0s
     0     0     cutoff    0       261.39305  261.39305  0.00%     -    0s

Cutting planes:
  MIR: 11
  Zero half: 7

Explored 1 nodes (366 simplex iterations) in 0.29 seconds
Thread count was 8 (of 8 available processors)

Solution count 9: 261.393 266.067 273.236 ... 831.305

Optimal solution found (tolerance 1.00e-04)
Best objective 2.613930461791e+02, best bound 2.613930461791e+02, gap 0.0000%
13 17 18 19
20 24 25 23 22
8 10 11 16 14
5 3 7 9 6 4 2
Distance: 261.393046179
Execution time:  0.591437416667  minutes
